ALGO = Fast
EDIFF = 1E-6
EDIFFG = -0.01
ENCUT = 520
ICHARG = 0
ISMEAR = 0
ISPIN = 1
IVDW = 11
LAECHG = False
LCHARG = False
LREAL = Auto
LVHAR = False
LWAVE = False
#NPAR = 4
NELM = 100
PREC = Accurate
SIGMA = 0.1
IBRION = 6
ISIF = 3
NFREE = 4
POTIM = 0.015
