pymatgen v2020.4.29 with grid density = 2914 / atom
0
Gamma
7 7 7
